c preprocessed version of eil101.tsp, 100 vertices, 288 edges
p td 100 288
0 1
0 89
0 4
0 17
0 90
0 18
0 20
0 19
2 1
4 1
3 1
1 89
2 3
2 31
2 28
2 89
4 3
3 32
3 31
3 5
3 8
3 6
4 5
4 16
4 17
6 5
15 5
16 5
7 6
8 6
6 15
7 8
7 15
7 9
7 96
7 14
7 11
7 13
9 8
8 32
10 9
9 32
9 96
10 11
10 96
10 83
10 82
10 33
10 32
12 11
13 11
11 96
11 83
12 13
12 83
12 37
12 81
12 78
14 13
13 18
13 40
13 37
14 15
14 17
14 18
15 16
15 17
17 16
18 17
18 19
18 40
20 19
40 19
21 20
20 91
20 90
20 93
20 94
20 40
20 39
21 22
21 94
21 57
21 39
21 41
23 22
25 22
57 22
94 22
93 22
22 95
23 24
23 54
23 95
23 56
23 57
25 24
54 24
55 24
24 26
24 95
25 26
25 92
25 93
25 95
27 26
55 26
53 26
92 26
26 52
27 28
27 52
27 91
27 92
29 28
28 31
28 89
28 90
28 52
28 91
29 30
29 31
29 51
29 52
30 31
30 51
30 50
31 32
33 32
34 33
82 33
33 87
33 76
33 75
34 35
34 86
34 87
34 76
34 77
34 69
36 35
69 35
68 35
85 35
79 35
35 86
36 37
36 65
36 79
36 67
36 68
38 37
37 40
37 39
37 78
37 65
37 79
38 39
38 41
38 66
38 65
40 39
41 39
42 41
66 41
57 41
43 42
42 57
42 46
42 66
42 44
43 44
43 66
43 63
43 58
43 61
43 59
45 44
58 44
44 46
45 46
45 47
45 58
47 46
57 46
46 56
48 47
47 56
49 48
48 50
48 54
48 56
49 50
49 51
49 53
49 54
51 50
51 52
51 53
53 52
54 53
55 53
54 55
54 56
57 56
59 58
60 59
59 61
60 61
60 72
60 73
62 61
61 63
61 72
62 63
62 64
62 67
62 68
62 71
62 72
64 63
66 63
64 65
64 66
64 67
66 65
65 67
68 67
69 68
68 71
68 70
69 70
69 77
69 74
70 71
70 72
70 74
70 73
72 71
72 73
73 74
73 75
75 74
74 77
76 75
75 77
76 77
79 78
81 78
78 88
80 79
85 79
79 88
80 81
80 88
80 82
80 84
80 85
82 81
81 83
81 88
82 83
82 84
82 87
85 84
87 84
84 86
85 86
87 86
89 90
90 91
92 91
93 91
92 93
94 93
97 45
97 47
97 48
97 50
97 58
97 98
98 59
98 58
98 99
99 97
99 59
99 60
99 73
